WARNING: for repeatability, setting FPU to use double precision
============================[ Problem Statistics ]=============================
|                                                                             |
|  Number of variables:            29                                         |
|  Number of clauses:             129                                         |
|  Parse time:                   0.00 s                                       |
|  Eliminated clauses:           0.00 Mb                                      |
|  Simplification time:          0.00 s                                       |
|                                                                             |
============================[ Search Statistics ]==============================
| Conflicts |          ORIGINAL         |          LEARNT          | Progress |
|           |    Vars  Clauses Literals |    Limit  Clauses Lit/Cl |          |
===============================================================================
===============================================================================
restarts              : 1
conflicts             : 0              (-nan /sec)
decisions             : 6              (0.00 % random) (inf /sec)
propagations          : 25             (inf /sec)
conflict literals     : 0              (-nan % deleted)
Memory used           : 20.74 MB
CPU time              : 0 s

SATISFIABLE
